NAME: ACTUAL_TOURS/amz1504
TYPE: TOUR
COMMENT: RouteID_a16894e3-0d54-4e4c-93a9-0b11bbff3320
DIMENSION: 146
TOUR_SECTION
96
107
41
62
22
102
2
101
108
86
37
29
28
136
54
83
73
38
18
1
17
20
49
145
112
110
90
114
81
51
79
143
120
33
111
36
109
23
138
68
124
12
75
67
31
69
118
40
16
30
76
34
142
119
10
106
117
131
7
93
100
132
141
135
50
104
15
27
24
53
127
52
130
19
63
113
5
103
129
78
99
123
61
89
98
115
4
59
91
97
128
70
94
121
65
14
21
95
44
3
134
92
133
60
140
13
139
126
39
57
105
42
55
84
80
74
64
32
72
26
71
122
25
146
144
43
6
11
47
46
48
56
58
77
85
87
137
66
88
9
45
82
125
8
35
116
-1
EOF
